2 30
1264 1144 
0 56 22 33 40 14 56 1
1 89 78 97 13 52 37 1
2 6 80 7 51 91 50 1
3 30 93 7 40 70 46 2
4 20 46 88 97 90 7 2
5 83 64 92 18 73 91 1
6 96 31 44 58 41 70 1
7 22 66 62 4 72 99 1
8 53 3 13 78 88 63 1
9 81 56 49 11 68 57 1
10 49 26 34 72 34 66 1
11 57 49 30 60 33 48 2
12 37 86 98 29 39 42 2
13 68 18 9 65 83 56 2
14 81 39 54 73 12 31 1
15 70 63 23 85 94 5 2
16 72 75 17 54 39 49 1
17 80 10 17 5 22 69 1
18 61 23 97 46 49 27 2
19 84 44 72 11 94 50 1
20 64 75 60 82 26 62 2
21 81 6 42 72 61 52 1
22 10 58 55 9 34 10 2
23 10 81 3 55 58 47 1
24 83 95 28 13 7 61 1
25 29 70 93 93 73 16 1
26 6 96 27 31 45 19 1
27 14 2 82 40 68 6 1
28 44 68 57 90 72 84 2
29 43 57 59 36 46 42 2
